language ESSENCE' 1.0
letting lastdx=95
letting cage be [
[13,16,10,15,10,0,0, 0,0, 0,0],
[1,5,15,0,0, 0,0, 0,0, 0,0],
[48,3,11,3,10,4,10,4,11,4,12],
[4,5,2,0,0, 0,0, 0,0, 0,0],
[7,10,6,11,6,0,0, 0,0, 0,0],
[15,10,8,0,0, 0,0, 0,0, 0,0],
[36,2,9,2,8,3,8,3,9,4,9],
[13,13,9,0,0, 0,0, 0,0, 0,0],
[43,4,15,4,14,5,14,5,13,0,0],
[16,10,11,0,0, 0,0, 0,0, 0,0],
[20,15,3,16,3,0,0, 0,0, 0,0],
[9,2,13,2,12,1,12,0,0, 0,0],
[23,14,13,14,14,15,14,15,15,0,0],
[39,14,1,14,2,13,2,12,2,0,0],
[1,13,14,0,0, 0,0, 0,0, 0,0],
[17,3,15,3,16,0,0, 0,0, 0,0],
[9,4,7,3,7,0,0, 0,0, 0,0],
[9,8,7,0,0, 0,0, 0,0, 0,0],
[7,13,1,0,0, 0,0, 0,0, 0,0],
[14,9,2,0,0, 0,0, 0,0, 0,0],
[3,9,6,0,0, 0,0, 0,0, 0,0],
[8,6,5,0,0, 0,0, 0,0, 0,0],
[5,16,11,0,0, 0,0, 0,0, 0,0],
[49,1,6,2,6,3,6,3,5,0,0],
[5,11,5,0,0, 0,0, 0,0, 0,0],
[41,4,3,3,3,2,3,2,4,0,0],
[7,1,3,0,0, 0,0, 0,0, 0,0],
[38,5,6,5,7,5,8,4,8,0,0],
[37,13,5,13,4,12,4,12,5,12,6],
[4,8,9,8,8,0,0, 0,0, 0,0],
[7,14,10,14,11,0,0, 0,0, 0,0],
[46,8,1,9,1,10,1,11,1,12,1],
[12,11,4,0,0, 0,0, 0,0, 0,0],
[13,5,11,0,0, 0,0, 0,0, 0,0],
[15,12,14,0,0, 0,0, 0,0, 0,0],
[36,5,1,4,1,3,1,3,2,4,2],
[9,2,14,0,0, 0,0, 0,0, 0,0],
[4,9,7,0,0, 0,0, 0,0, 0,0],
[39,11,10,12,10,12,11,13,11,13,10],
[12,6,6,0,0, 0,0, 0,0, 0,0],
[7,8,11,0,0, 0,0, 0,0, 0,0],
[32,16,12,16,13,16,14,16,15,0,0],
[54,1,11,2,11,2,10,1,10,1,9],
[33,8,6,8,5,8,4,0,0, 0,0],
[1,16,5,0,0, 0,0, 0,0, 0,0],
[23,8,13,9,13,9,14,9,15,0,0],
[22,8,12,7,12,6,12,5,12,0,0],
[39,7,1,7,2,8,2,8,3,7,3],
[13,2,15,0,0, 0,0, 0,0, 0,0],
[11,16,4,0,0, 0,0, 0,0, 0,0],
[8,11,8,0,0, 0,0, 0,0, 0,0],
[48,13,7,12,7,11,7,10,7,0,0],
[3,14,4,0,0, 0,0, 0,0, 0,0],
[33,10,3,9,3,11,3,0,0, 0,0],
[3,13,8,0,0, 0,0, 0,0, 0,0],
[16,4,5,4,6,0,0, 0,0, 0,0],
[17,14,7,14,8,0,0, 0,0, 0,0],
[32,6,14,7,14,7,13,6,13,0,0],
[45,8,16,7,16,8,15,8,14,0,0],
[50,7,11,7,10,6,10,6,11,0,0],
[15,16,9,0,0, 0,0, 0,0, 0,0],
[23,12,3,13,3,14,3,0,0, 0,0],
[23,15,13,15,12,15,11,0,0, 0,0],
[39,3,4,4,4,5,4,5,5,0,0],
[17,16,6,16,7,15,7,0,0, 0,0],
[8,1,4,1,5,2,5,0,0, 0,0],
[16,6,9,0,0, 0,0, 0,0, 0,0],
[2,9,11,0,0, 0,0, 0,0, 0,0],
[21,11,14,11,13,0,0, 0,0, 0,0],
[40,1,13,1,14,1,15,1,16,2,16],
[47,11,12,11,11,10,12,9,12,0,0],
[52,6,4,7,4,7,5,7,6,0,0],
[24,6,3,5,3,6,2,6,1,0,0],
[12,3,12,0,0, 0,0, 0,0, 0,0],
[16,16,2,0,0, 0,0, 0,0, 0,0],
[15,15,2,15,1,16,1,0,0, 0,0],
[41,12,15,11,15,11,16,10,16,9,16],
[24,10,14,10,13,10,15,0,0, 0,0],
[33,14,16,15,16,16,16,0,0, 0,0],
[17,15,9,14,9,0,0, 0,0, 0,0],
[30,13,12,14,12,0,0, 0,0, 0,0],
[23,2,7,1,7,1,8,0,0, 0,0],
[14,12,13,12,12,13,13,0,0, 0,0],
[43,1,1,1,2,2,2,2,1,0,0],
[29,3,13,3,14,4,13,0,0, 0,0],
[19,5,9,5,10,0,0, 0,0, 0,0],
[26,6,7,6,8,7,8,7,7,7,9],
[5,8,10,0,0, 0,0, 0,0, 0,0],
[40,9,8,9,9,10,9,10,10,9,10],
[7,10,2,11,2,0,0, 0,0, 0,0],
[32,11,9,12,9,12,8,0,0, 0,0],
[47,12,16,13,16,13,15,14,15,0,0],
[23,13,6,14,6,15,6,0,0, 0,0],
[16,14,5,0,0, 0,0, 0,0, 0,0],
[28,15,4,15,5,0,0, 0,0, 0,0],
[19,15,8,16,8,0,0, 0,0, 0,0]
]
